NAME: rue_25_9
TYPE: TSP
DIMENSION: 25
EDGE_WEIGHT_TYPE: EUC_2D
NODE_COORD_SECTION
1 26 17
2 14 23
3 39 31
4 39 2
5 29 35
6 29 7
7 8 28
8 27 18
9 12 30
10 40 6
11 40 29
12 14 5
13 11 21
14 18 13
15 12 20
16 19 5
17 18 6
18 11 21
19 4 14
20 18 18
21 27 33
22 16 36
23 23 11
24 37 16
25 33 23

